146	32	4	47	
16	9	10	21

0	0	0	0	0	0	3	1	2	3
1	0	0	0	5	4	3	5	12	23
2	0	0	4	0	4	3	4	6	11
3	0	0	0	4	1	1	8
4	9	0	0	0	2	3	7	14	24
5	0	0	0	7	4	2	9	25
6	0	0	0	2	1	2	10	23
7	0	0	0	4	7	1	17
8	9	0	0	0	9	1	13
9	8	0	0	0	6	1	19
10	0	7	0	0	2	1	14
11	4	0	0	0	3	2	27	30
12	0	0	0	9	9	2	15	16
13	0	1	0	0	3	1	22
14	0	0	0	7	4	2	16	27
15	0	6	0	0	5	3	17	24	28
16	0	0	8	0	5	1	29
17	5	0	0	0	7	3	18	20	27
18	4	0	0	0	9	1	25
19	0	0	4	0	2	1	21
20	6	0	0	0	10	1	29
21	3	0	0	0	3	1	22
22	0	8	0	0	2	1	26
23	0	0	0	5	7	1	25
24	2	0	0	0	10	1	26
25	0	9	0	0	8	1	26
26	0	0	5	0	3	1	30
27	0	0	2	0	9	1	29
28	3	0	0	0	4	1	31
29	0	0	0	2	1	1	31
30	0	0	0	3	2	1	31
31	0	0	0	0	0	0
